 ! --------------------------------------------------- CP Optimizer 22.1.1.0 --
 ! Satisfiability problem - 26340 variables, 231275 constraints
 ! Presolve      : 16200 extractables eliminated
 ! TimeLimit            = 3600
 ! Workers              = 1
 ! Initial process time : 2.41s (2.40s extraction + 0.01s propagation)
 !  . Log search space  : 272627.7 (before), 272627.7 (after)
 !  . Memory usage      : 182.6 MB (before), 182.6 MB (after)
 ! Using sequential search.
 ! ----------------------------------------------------------------------------
 !               Branches  Non-fixed            Branch decision
                     1177      25784        F          presenceOf(copy_trips:18_0)
                     2000      15257                   presenceOf(copy_lane_parking:3_8)
                     3000       9482        F         !presenceOf(copy_trips:25_0)
                     4000       9479                  !presenceOf(copy_trips:8_197)
                     5000       9376                  !presenceOf(copy_trips:29_197)
                     6000       9376                   presenceOf(copy_lane_parking:1_39)
                     7000       9479                   presenceOf(copy_bus_parking:27_233)
                     8000       9482                  !presenceOf(copy_trips:7_8)
                     9000      22952                   presenceOf(copy_lane_parking:2_183)
                    10000       9482        F          presenceOf(copy_bus_parking:25_197)
                    11000       9482                   presenceOf(copy_lane_parking:1_64)
                    12000      15654                   presenceOf(copy_bus_parking:22_224)
                    13000      15373                   presenceOf(copy_trips:14_3)
                    14000      16152                  !presenceOf(copy_bus_parking:24_69)
                    15000      16352                  !presenceOf(copy_bus_parking:28_268)
                    16000      16473                   presenceOf(copy_lane_parking:3_118)
                    17000      16935                  !presenceOf(copy_trips:27_21)
                    18000       9482        F          presenceOf(copy_trips:3_197)
                    19000       9482                  !presenceOf(copy_trips:4_31)
                    20000      17288                  !presenceOf(copy_trips:20_71)
 ! Time = 18.00s, Average fail depth = 330, Memory usage = 551.5 MB
 !               Branches  Non-fixed            Branch decision
                    21000      17027        F          presenceOf(copy_trips:18_268)
                    22000      16537                   presenceOf(copy_trips:7_1)
                    23000      11284        F          presenceOf(copy_trips:14_63)
                    24000      10723        F          presenceOf(copy_trips:29_37)
                    25000      10684                   presenceOf(copy_trips:17_71)
                    26000       9485        F          presenceOf(copy_bus_parking:7_196)
                    27000       9485        F         !presenceOf(start_parking:22)
                    28000      18108                  !presenceOf(copy_trips:16_38)
                    29000       8992        F          presenceOf(copy_trips:12_0)
                    30000      23204        F          presenceOf(copy_trips:6_0)
                    31000      23216                  !presenceOf(copy_trips:3_5)
                    32000      23213                   presenceOf(copy_lane_parking:3_34)
                    33000      14287                   presenceOf(copy_lane_parking:1_87)
                    34000      13235                  !presenceOf(copy_trips:15_55)
                    35000      10608                   presenceOf(copy_trips:22_163)
                    36000       9000                   presenceOf(copy_lane_parking:4_186)
                    37000      19332        F          presenceOf(copy_trips:13_2)
                    38000      18187                  !presenceOf(copy_trips:13_63)
                    39000      15495           1199  = startOf(charge:29_31)
                    40000      11130                  !presenceOf(copy_bus_parking:5_74)
 ! Time = 35.50s, Average fail depth = 311, Memory usage = 569.1 MB
 !               Branches  Non-fixed            Branch decision
                    41000       9485                  !presenceOf(copy_trips:25_197)
                    42000       9485                  !presenceOf(copy_trips:21_197)
                    43000       9485                  !presenceOf(copy_trips:6_197)
                    44000       9485                   presenceOf(copy_lane_parking:3_208)
                    45000      16941        F          presenceOf(copy_trips:8_8)
                    46000      18124           1100  = startOf(charge:27_64)
                    47000      13900        F         !presenceOf(copy_trips:13_122)
                    48000      13900                  !presenceOf(copy_trips:6_122)
                    49000      13902        F          presenceOf(copy_trips:28_0)
                    50000      22538        F          presenceOf(copy_trips:6_7)
                    51000      18121        F          presenceOf(copy_trips:7_29)
                    52000      18557                   presenceOf(copy_bus_parking:17_158)
                    53000      15409        F         !presenceOf(copy_bus_parking:11_5)
                    54000      10990        F         !presenceOf(copy_trips:22_69)
                    55000      10975                   presenceOf(copy_bus_parking:22_68)
                    56000      10990        F          presenceOf(copy_trips:6_67)
                    57000      18919                   presenceOf(copy_lane_parking:2_102)
                    58000      16944                   presenceOf(copy_bus_parking:18_25)
                    59000      18630        F          presenceOf(copy_trips:21_58)
                    60000       9382                  !presenceOf(copy_trips:0_196)
 ! Time = 50.08s, Average fail depth = 325, Memory usage = 570.9 MB
 !               Branches  Non-fixed            Branch decision
                    61000       9382           1300  = startOf(charge:17_75)
                    62000      10366                  !presenceOf(copy_trips:22_20)
                    63000      13118                  !presenceOf(copy_bus_parking:24_268)
                    64000      16932        F          presenceOf(copy_trips:11_269)
                    65000      16929        F          presenceOf(copy_trips:18_268)
                    66000      16935                   presenceOf(copy_lane_parking:3_19)
                    67000      17115        F          presenceOf(copy_bus_parking:16_5)
                    68000      18014                   presenceOf(copy_lane_parking:4_81)
                    69000      16932                   presenceOf(copy_bus_parking:18_160)
                    70000       9479        F          presenceOf(copy_trips:25_5)
                    71000      18175                  !presenceOf(copy_bus_parking:5_0)
                    72000      23683                   presenceOf(copy_trips:9_4)
                    73000       8820        F         !presenceOf(copy_bus_parking:5_267)
                    74000       8817        F          presenceOf(copy_trips:20_268)
                    75000       8817                  !presenceOf(copy_bus_parking:6_267)
                    76000       8820                   presenceOf(copy_trips:3_265)
                    77000       9485                  !presenceOf(copy_trips:15_93)
                    78000      11661                  !presenceOf(copy_bus_parking:19_268)
                    79000      16944        F          presenceOf(copy_bus_parking:0_12)
                    80000      18224        F          presenceOf(copy_bus_parking:26_12)
 ! Time = 64.58s, Average fail depth = 328, Memory usage = 571.1 MB
 !               Branches  Non-fixed            Branch decision
                    81000      18133                   presenceOf(copy_bus_parking:18_12)
                    82000      18049        F          presenceOf(copy_bus_parking:10_12)
                    83000      18133                   presenceOf(copy_trips:7_2)
                    84000      22613                  !presenceOf(copy_trips:26_10)
                    85000      22614        F          presenceOf(copy_trips:4_10)
                    86000      22613        F         !presenceOf(copy_bus_parking:14_74)
                    87000      22613                   presenceOf(copy_bus_parking:3_9)
                    88000      18913                  !presenceOf(copy_trips:2_67)
                    89000      14954                  !presenceOf(copy_bus_parking:2_164)
                    90000      14902                  !presenceOf(copy_bus_parking:28_164)
                    91000      14966        F          presenceOf(copy_bus_parking:16_164)
                    92000      14890        F          presenceOf(copy_bus_parking:16_164)
                    93000      14890        F          presenceOf(copy_trips:4_118)
                    94000      14890        F          presenceOf(copy_bus_parking:16_164)
                    95000      14966                   presenceOf(copy_bus_parking:11_101)
                    96000      10547        F          presenceOf(copy_trips:11_192)
                    97000      10547        F          presenceOf(copy_bus_parking:1_6)
                    98000      20251        F          presenceOf(copy_bus_parking:4_6)
                    99000      20248        F          presenceOf(copy_bus_parking:7_78)
                     100k      20249        F          presenceOf(copy_trips:13_22)
 ! Time = 78.50s, Average fail depth = 328, Memory usage = 571.1 MB
 !               Branches  Non-fixed            Branch decision
                     101k      20260                  !presenceOf(copy_trips:0_1)
                     102k      20260        F          presenceOf(copy_bus_parking:7_78)
                     103k      20260        F         !presenceOf(copy_bus_parking:7_6)
                     104k      20137                  !presenceOf(copy_bus_parking:9_78)
                     105k      20131                  !presenceOf(copy_bus_parking:4_6)
                     106k      20137        F          presenceOf(copy_bus_parking:5_6)
                     107k      20140                   presenceOf(copy_trips:15_1)
                     108k      20137                  !presenceOf(copy_bus_parking:8_78)
                     109k      20134                  !presenceOf(copy_bus_parking:25_78)
                     110k      19590                   presenceOf(copy_lane_parking:1_54)
                     111k      18235                   presenceOf(copy_trips:27_25)
                     112k      18235                   presenceOf(copy_bus_parking:20_12)
                     113k      18235        F          presenceOf(copy_trips:9_25)
                     114k      18235        F          presenceOf(copy_trips:1_72)
                     115k       9279            on charge:9_163
                     116k       5317        F          presenceOf(copy_trips:16_209)
                     117k       5323        F          presenceOf(copy_trips:24_205)
                     118k       5373        F          presenceOf(copy_trips:27_12)
                     119k      18426                  !presenceOf(copy_bus_parking:20_1)
                     120k      18426                   presenceOf(copy_trips:24_12)
 ! Time = 96.05s, Average fail depth = 334, Memory usage = 578.7 MB
 !               Branches  Non-fixed            Branch decision
                     121k      18429        F          presenceOf(copy_trips:6_18)
                     122k      18392        F          presenceOf(copy_trips:2_12)
                     123k      18426                  !presenceOf(copy_bus_parking:1_1)
                     124k      18392                  !presenceOf(copy_bus_parking:21_25)
                     125k      18426                  !presenceOf(copy_bus_parking:29_25)
                     126k      18429        F          presenceOf(copy_bus_parking:21_25)
                     127k      18429        F          presenceOf(copy_trips:16_0)
                     128k      18463                  !presenceOf(copy_bus_parking:1_25)
                     129k      18532        F          presenceOf(copy_trips:16_0)
                     130k      18532                  !presenceOf(copy_bus_parking:0_1)
                     131k      18532                   presenceOf(copy_trips:16_10)
                     132k      13177                   presenceOf(copy_lane_parking:2_143)
                     133k       1501                   presenceOf(copy_trips:12_220)
 *                   133k  113.28s                   -
 ! ----------------------------------------------------------------------------
 ! Search completed, 1 solution found.
 ! ----------------------------------------------------------------------------
 ! Number of branches     : 133271
 ! Number of fails        : 51519
 ! Total memory usage     : 628.9 MB (612.8 MB CP Optimizer + 16.1 MB Concert)
 ! Time spent in solve    : 113.29s (110.89s engine + 2.40s extraction)
 ! Search speed (br. / s) : 1201.8
 ! ----------------------------------------------------------------------------
